c ---- [ banner ] ------------------------------------------------------------
c
c Kissat SAT Solver
c 
c Copyright (c) 2021-2024 Armin Biere University of Freiburg
c Copyright (c) 2019-2021 Armin Biere Johannes Kepler University Linz
c 
c Version 4.0.1 43f02cf3e992cb44653b35e5cb26f93281552ae0
c gcc (Ubuntu 13.2.0-23ubuntu4) 13.2.0 -W -Wall -O3 -DNDEBUG
c Thu Sep 12 12:27:46 CEST 2024 Linux abryzen9 6.8.0-41-generic x86_64
c
c ---- [ parsing ] -----------------------------------------------------------
c
c opened and reading DIMACS file:
c
c   /data/artifact/AMulet2.0_artifact/exp4/cnf_dc2_64/64_64_U_SP_DT_RC_GenMul_dc2.cnf
c
c parsed 'p cnf 28698 127342' header
c closing input after reading 2551688 bytes (2 MB)
c finished parsing after 0.03 seconds
c
c ---- [ options ] -----------------------------------------------------------
c
c --stable=0                       (different from default '1')
c
c ---- [ solving ] -----------------------------------------------------------
c
c  seconds switched rate     size/glue tier1  binary           remaining
c         MB reductions conflicts size  tier2     irredundant
c          level restarts redundant glue  trail           variables
c
c *  0.03 10 0 0 0  0 0   0   0 0.0 0 0 0 0 0% 10343 116997 28695 100%
c (  0.05 12 0 0 0  0 0   0   0 0.0 0 0 0 0 0% 10343 116997 28695 100%
c .  0.06 12 0 0 0  0 0   0   0 0.0 0 0 0 0 0% 10339 116997 28695 100%
c c  0.14 17 0 0 0  0 0   0   0 0.0 0 0 0 0 0% 16865 103945 25432 89%
c d  0.15 17 0 0 0  0 0   0   0 0.0 0 0 0 0 0% 10339 103945 25432 89%
c =  0.19 17 0 0 0  0 0   0   0 0.0 0 0 0 0 0% 10999 103945 25102 87%
c d  0.20 17 0 0 0  0 0   0   0 0.0 0 0 0 0 0% 10339 103945 25102 87%
c f  0.28 17 0 0 0  0 0   0   0 0.0 0 0 0 0 0% 14945 96686 27690 96%
c e  0.40 25 0 0 0  0 0   0   0 0.0 0 0 0 0 0% 9323 104101 19019 66%
c )  0.40 25 0 0 0  0 0   0   0 0.0 0 0 0 0 0% 9323 104101 19019 66%
c {  0.42 25 0 0 0  0 0   0   0 0.0 0 0 2 6 0% 9323 104101 19019 66%
c -  0.65 25 174 0 1 175 33 1000 750 4.4 32 7 3 13 32% 9344 104101 19019 66%
c -  0.79 25 222 0 2 255 30 2001 1383 4.1 29 7 3 13 30% 9373 104101 19019 66%
c c  0.88 20 210 0 2 293 29 2503 1730 4.1 29 7 3 11 28% 9442 103845 18980 66%
c d  0.88 20 210 0 2 293 29 2503 1719 4.1 29 7 3 11 28% 9364 103845 18980 66%
c u  0.89 20 210 0 2 293 29 2503 1439 4.1 29 7 3 11 28% 9367 103845 18980 66%
c v  0.91 20 210 0 2 293 29 2503 1264 4.1 29 7 3 11 28% 9367 103845 18980 66%
c w  0.92 20 210 0 2 293 29 2503 1264 4.1 29 7 3 11 28% 9367 103845 18980 66%
c x  0.94 20 210 0 2 293 29 2503 1264 4.1 29 7 3 11 28% 9367 103813 18980 66%
c =  0.99 24 210 0 2 293 29 2503 1264 4.1 29 7 3 11 28% 9815 103813 18756 65%
c
c  seconds   switched   rate       size/glue tier1     binary          remaining
c         MB  reductions conflicts       size  tier2      irredundant
c           level restarts    redundant    glue    trail          variables
c
c d  1.00 24 210 0 2 293 29 2503 1254 4.1 29 7 3 11 28% 9362 103813 18755 65%
c f  1.02 24 210 0 2 293 29 2503 1254 4.1 29 7 3 11 28% 9930 102677 19323 67%
c u  1.07 24 210 0 2 293 29 2503 1221 4.1 29 7 3 11 28% 9930 102677 19323 67%
c v  1.08 24 210 0 2 293 29 2503 1120 4.1 29 7 3 11 28% 9930 102677 19323 67%
c w  1.11 24 210 0 2 293 29 2503 1117 4.1 29 7 3 11 28% 9930 102677 19323 67%
c =  1.15 24 210 0 2 293 29 2503 1117 4.1 29 7 3 11 28% 10102 102677 19237 67%
c d  1.16 24 210 0 2 293 29 2503 1117 4.1 29 7 3 11 28% 9905 102677 19237 67%
c f  1.18 24 210 0 2 293 29 2503 1117 4.1 29 7 3 11 28% 9961 102593 19265 67%
c -  1.27 24 197 0 3 336 25 3416 1625 3.7 25 7 3 11 26% 9974 102593 19265 67%
c -  1.57 26 246 0 4 547 30 5148 2654 3.8 26 7 3 11 27% 10042 102593 19265 67%
c -  1.88 26 273 0 5 757 31 7148 3789 3.9 26 7 3 11 28% 10100 102593 19265 67%
c d  2.07 26 266 0 5 862 31 7706 4255 3.8 26 7 3 11 28% 10058 102593 19234 67%
c u  2.11 26 266 0 5 862 31 7706 3549 3.8 26 7 3 11 28% 10078 102593 19234 67%
c v  2.14 26 266 0 5 862 31 7706 3215 3.8 26 7 3 11 28% 10078 102593 19234 67%
c w  2.16 26 266 0 5 862 31 7706 3214 3.8 26 7 3 11 28% 10078 102593 19234 67%
c x  2.19 26 266 0 5 862 31 7706 3214 3.8 26 7 3 11 28% 10078 101865 19234 67%
c =  2.30 26 266 0 5 862 31 7706 3214 3.8 26 7 3 11 28% 11066 101865 18740 65%
c d  2.30 26 266 0 5 862 31 7706 3175 3.8 26 7 3 11 28% 9942 101865 18738 65%
c t  2.31 26 266 0 5 862 31 7706 3175 3.8 26 7 3 11 28% 9938 101865 18738 65%
c f  2.34 26 266 0 5 862 31 7706 3175 3.8 26 7 3 11 28% 10271 101353 18905 66%
c
c  seconds   switched   rate       size/glue tier1     binary           remaining
c         MB  reductions conflicts       size  tier2       irredundant
c           level restarts    redundant    glue    trail           variables
c
c c  2.39 26 266 0 5 862 31 7706 3175 3.8 26 7 3 11 28% 10273 101343 18904 66%
c d  2.39 26 266 0 5 862 31 7706 3175 3.8 26 7 3 11 28% 10271 101343 18904 66%
c u  2.41 26 266 0 5 862 31 7706 3046 3.8 26 7 3 11 28% 10274 101343 18904 66%
c v  2.43 26 266 0 5 862 31 7706 2972 3.8 26 7 3 11 28% 10274 101343 18904 66%
c w  2.46 26 266 0 5 862 31 7706 2963 3.8 26 7 3 11 28% 10274 101343 18904 66%
c x  2.48 26 266 0 5 862 31 7706 2963 3.8 26 7 3 11 28% 10274 101304 18904 66%
c =  2.59 26 266 0 5 862 31 7706 2963 3.8 26 7 3 11 28% 11276 101304 18403 64%
c d  2.59 26 266 0 5 862 31 7706 2941 3.8 26 7 3 11 28% 10145 101304 18403 64%
c t  2.60 26 266 0 5 862 31 7706 2941 3.8 26 7 3 11 28% 10072 101304 18403 64%
c f  2.64 26 266 0 5 862 31 7706 2941 3.8 26 7 3 11 28% 12068 98306 19401 68%
c -  3.55 26 287 0 6 1104 33 9386 3751 4.4 31 7 2 10 29% 12102 98306 19401 68%
c o  3.71 26 288 0 6 1146 33 10005 4304 4.3 30 7 2 10 30% 12113 98306 19401 68%
c -  4.29 26 296 0 7 1322 33 11835 5143 4.2 30 7 2 10 29% 12142 98306 19401 68%
c s  4.61 26 292 0 7 1422 33 12507 5754 4.3 31 7 2 10 29% 12157 91601 19401 68%
c e  4.72 26 292 0 7 1422 33 12507 5754 4.3 31 7 2 10 29% 11296 92195 18874 66%
c s  4.72 26 292 0 7 1422 33 12507 5754 4.3 31 7 2 10 29% 11297 91697 18874 66%
c ^  4.74 26 292 0 7 1422 33 12507 5754 4.3 31 7 2 10 29% 11297 91697 18874 66%
c -  5.34 26 292 0 8 1645 34 14480 6190 4.5 33 7 2 10 29% 11331 91697 18874 66%
c d  5.63 26 296 0 8 1771 35 15785 7378 4.5 33 7 2 10 29% 11062 91697 18707 65%
c u  5.66 26 296 0 8 1771 35 15785 6610 4.5 33 7 2 10 29% 11071 91697 18707 65%
c
c  seconds   switched    rate        size/glue tier1     binary          remaining
c         MB  reductions   conflicts       size  tier2       irredundant
c           level  restarts     redundant    glue    trail          variables
c
c v  5.69 26 296 0 8 1771 35 15785 5593 4.5 33 7 2 10 29% 11073 91697 18707 65%
c w  5.80 26 296 0 8 1771 35 15785 5577 4.5 33 7 2 10 29% 11073 91697 18707 65%
c =  5.97 26 296 0 8 1771 35 15785 5577 4.5 33 7 2 10 29% 11927 91693 18280 64%
c d  5.98 26 296 0 8 1771 35 15785 5488 4.5 33 7 2 10 29% 10950 91693 18280 64%
c t  5.99 26 296 0 8 1771 35 15785 5488 4.5 33 7 2 10 29% 10882 91693 18280 64%
c f  6.04 26 296 0 8 1771 35 15785 5488 4.5 33 7 2 10 29% 11014 91429 18346 64%
c u  6.08 26 296 0 8 1771 35 15785 5311 4.5 33 7 2 10 29% 11017 91429 18346 64%
c v  6.11 26 296 0 8 1771 35 15785 5179 4.5 33 7 2 10 29% 11017 91429 18346 64%
c w  6.22 26 296 0 8 1771 35 15785 5171 4.5 33 7 2 10 29% 11017 91429 18346 64%
c x  6.25 26 296 0 8 1771 35 15785 5171 4.5 33 7 2 10 29% 11042 90951 18346 64%
c =  6.44 26 296 0 8 1771 35 15785 5171 4.5 33 7 2 10 29% 13952 90951 16891 59%
c d  6.45 26 296 0 8 1771 35 15785 5083 4.5 33 7 2 10 29% 9858 90951 16891 59%
c -  6.73 26 292 0 9 1891 34 17308 5537 4.5 34 8 2 10 29% 9900 90951 16891 59%
c o  7.14 26 285 0 9 2077 33 20006 7940 4.5 33 7 2 10 29% 9933 90951 16891 59%
c -  7.28 26 284 0 10 2118 33 20309 7228 4.5 34 8 2 10 29% 9937 90951 16891 59%
c -  8.14 26 284 0 11 2453 33 23471 8757 4.6 36 8 2 9 29% 9992 90951 16891 59%
c s  8.50 26 281 0 11 2581 33 25007 10094 4.6 36 8 2 9 29% 10019 85563 16891 59%
c e  8.61 26 281 0 11 2581 33 25007 10094 4.6 36 8 2 9 29% 8681 87330 16079 56%
c s  8.61 26 281 0 11 2581 33 25007 10094 4.6 36 8 2 9 29% 8681 86978 16079 56%
c e  8.62 26 281 0 11 2581 33 25007 10094 4.6 36 8 2 9 29% 8675 86986 16077 56%
c
c  seconds   switched     rate         size/glue tier1    binary         remaining
c         MB   reductions   conflicts        size  tier2     irredundant
c           level   restarts      redundant    glue   trail         variables
c
c ^  8.62 26 281 0 11 2581 33 25007 10094 4.6 36 8 2 9 29% 8675 86986 16077 56%
c -  8.83 26 277 0 12 2648 31 26788 9627 4.5 35 8 2 8 28% 8684 86986 16077 56%
c c  8.94 26 277 0 12 2665 31 26912 9746 4.5 35 8 2 8 28% 8747 86694 16040 56%
c d  8.95 26 277 0 12 2665 31 26912 9706 4.5 35 8 2 8 28% 8583 86694 15986 56%
c u  9.00 26 277 0 12 2665 31 26912 8653 4.5 35 8 2 8 28% 8598 86694 15986 56%
c v  9.06 26 277 0 12 2665 31 26912 7705 4.5 35 8 2 8 28% 8598 86694 15986 56%
c w  9.08 26 277 0 12 2665 31 26912 7701 4.5 35 8 2 8 28% 8598 86694 15986 56%
c x  9.15 26 277 0 12 2665 31 26912 7701 4.5 35 8 2 8 28% 8598 85367 15986 56%
c =  9.40 26 277 0 12 2665 31 26912 7701 4.5 35 8 2 8 28% 11338 85343 14615 51%
c d  9.41 26 277 0 12 2665 31 26912 7544 4.5 35 8 2 8 28% 8545 85343 14615 51%
c t  9.43 26 277 0 12 2665 31 26912 7544 4.5 35 8 2 8 28% 8541 85343 14615 51%
c f  9.48 26 277 0 12 2665 31 26912 7544 4.5 35 8 2 8 28% 8536 85326 14620 51%
c u  9.53 26 277 0 12 2665 31 26912 7251 4.5 35 8 2 8 28% 8542 85326 14620 51%
c v  9.56 26 277 0 12 2665 31 26912 7090 4.5 35 8 2 8 28% 8542 85326 14620 51%
c w  9.58 26 277 0 12 2665 31 26912 7086 4.5 35 8 2 8 28% 8542 85326 14620 51%
c x  9.67 26 277 0 12 2665 31 26912 7086 4.5 35 8 2 8 28% 8542 79524 14620 51%
c =  9.89 26 277 0 12 2665 31 26912 7086 4.5 35 8 2 8 28% 8650 79524 14566 51%
c d  9.90 26 277 0 12 2665 31 26912 7086 4.5 35 8 2 8 28% 8542 79524 14566 51%
c - 10.51 26 276 0 13 2896 31 30252 8924 4.4 33 8 2 8 27% 8579 79523 14566 51%
c - 11.08 26 271 0 14 3123 30 33857 10748 4.3 32 8 2 7 27% 8630 79523 14566 51%
c
c  seconds   switched     rate         size/glue tier1    binary         remaining
c         MB   reductions   conflicts        size  tier2     irredundant
c           level   restarts      redundant    glue   trail         variables
c
c - 11.53 26 263 0 15 3308 29 37598 12339 4.1 31 7 2 7 26% 8689 79523 14566 51%
c o 11.90 26 264 0 15 3414 28 40007 14306 4.1 30 7 2 7 26% 8761 79523 14566 51%
c c 12.42 26 261 0 15 3645 29 41245 15428 4.2 31 7 2 7 26% 8879 78781 14430 50%
c d 12.43 26 261 0 15 3645 29 41245 15062 4.2 31 7 2 7 26% 8607 78781 14430 50%
c u 12.50 26 261 0 15 3645 29 41245 12743 4.2 31 7 2 7 26% 8646 78781 14430 50%
c v 12.57 26 261 0 15 3645 29 41245 11765 4.2 31 7 2 7 26% 8654 78781 14430 50%
c w 12.62 26 261 0 15 3645 29 41245 11765 4.2 31 7 2 7 26% 8654 78781 14430 50%
c x 12.69 26 261 0 15 3645 29 41245 11765 4.2 31 7 2 7 26% 8657 75321 14430 50%
c = 12.93 26 261 0 15 3645 29 41245 11765 4.2 31 7 2 7 26% 8661 75321 14428 50%
c d 12.93 26 261 0 15 3645 29 41245 11738 4.2 31 7 2 7 26% 8622 75321 14411 50%
c t 12.95 26 261 0 15 3645 29 41245 11738 4.2 31 7 2 7 26% 8619 75321 14411 50%
c c 13.02 26 261 0 15 3645 29 41245 11738 4.2 31 7 2 7 26% 8648 75184 14394 50%
c d 13.02 26 261 0 15 3645 29 41245 11699 4.2 31 7 2 7 26% 8614 75184 14394 50%
c u 13.08 26 261 0 15 3645 29 41245 11190 4.2 31 7 2 7 26% 8623 75184 14394 50%
c v 13.13 26 261 0 15 3645 29 41245 10626 4.2 31 7 2 7 26% 8630 75184 14394 50%
c w 13.22 26 261 0 15 3645 29 41245 10626 4.2 31 7 2 7 26% 8630 75184 14394 50%
c x 13.28 26 261 0 15 3645 29 41245 10626 4.2 31 7 2 7 26% 8631 74567 14394 50%
c = 13.52 26 261 0 15 3645 29 41245 10626 4.2 31 7 2 7 26% 9351 74567 14033 49%
c d 13.53 26 261 0 15 3645 29 41245 10550 4.2 31 7 2 7 26% 8601 74563 14027 49%
c - 13.64 26 260 0 16 3680 29 41471 9447 4.1 31 7 2 7 26% 8611 74563 14027 49%
c
c  seconds   switched     rate         size/glue tier1    binary         remaining
c         MB   reductions   conflicts        size  tier2     irredundant
c           level   restarts      redundant    glue   trail         variables
c
c - 14.41 26 261 0 17 4027 29 45471 11472 4.1 31 8 2 7 27% 8651 74558 14027 49%
c - 15.09 26 256 0 18 4301 28 49594 13347 4.0 30 7 2 7 26% 8741 74555 14027 49%
c s 15.60 26 255 0 18 4519 28 52109 15542 4.0 30 8 2 7 27% 8788 72141 14027 49%
c e 15.68 26 255 0 18 4519 28 52109 15542 4.0 30 8 2 7 27% 8315 72615 13726 48%
c 2 15.68 26 255 0 18 4519 28 52109 15542 4.0 30 8 2 7 27% 8314 72615 13726 48%
c s 15.69 26 255 0 18 4519 28 52109 15542 4.0 30 8 2 7 27% 8314 72236 13726 48%
c e 15.69 26 255 0 18 4519 28 52109 15542 4.0 30 8 2 7 27% 8314 72242 13723 48%
c ^ 15.69 26 255 0 18 4519 28 52109 15542 4.0 30 8 2 7 27% 8314 72242 13723 48%
c - 15.95 26 251 0 19 4650 28 53837 13959 4.0 30 8 2 7 26% 8359 72241 13723 48%
c - 16.60 26 251 0 20 4960 27 58195 15635 3.9 29 8 2 6 26% 8446 72241 13723 48%
c c 16.80 26 250 0 20 5047 27 58891 16285 3.9 29 8 2 6 26% 8617 71173 13567 47%
c d 16.81 26 250 0 20 5047 27 58891 15930 3.9 29 8 2 6 26% 8305 71173 13567 47%
c u 16.88 26 250 0 20 5047 27 58891 13563 3.9 29 8 2 6 26% 8348 71173 13567 47%
c v 16.95 26 250 0 20 5047 27 58891 12179 3.9 29 8 2 6 26% 8359 71173 13567 47%
c w 17.02 26 250 0 20 5047 27 58891 12128 3.9 29 8 2 6 26% 8359 71173 13567 47%
c x 17.10 26 250 0 20 5047 27 58891 12128 3.9 29 8 2 6 26% 8361 70401 13567 47%
c = 17.42 26 250 0 20 5047 27 58891 12128 3.9 29 8 2 6 26% 9217 70399 13139 46%
c d 17.43 26 250 0 20 5047 27 58891 11649 3.9 29 8 2 6 26% 8254 70399 13133 46%
c t 17.45 26 250 0 20 5047 27 58891 11649 3.9 29 8 2 6 26% 8243 70399 13133 46%
c f 17.48 26 250 0 20 5047 27 58891 11649 3.9 29 8 2 6 26% 8245 70392 13134 46%
c
c  seconds   switched     rate         size/glue tier1    binary         remaining
c         MB   reductions   conflicts        size  tier2     irredundant
c           level   restarts      redundant    glue   trail         variables
c
c c 17.53 26 250 0 20 5047 27 58891 11647 3.9 29 8 2 6 26% 8251 70368 13131 46%
c d 17.54 26 250 0 20 5047 27 58891 11647 3.9 29 8 2 6 26% 8245 70368 13131 46%
c u 17.60 26 250 0 20 5047 27 58891 10976 3.9 29 8 2 6 26% 8251 70368 13131 46%
c v 17.64 26 250 0 20 5047 27 58891 10720 3.9 29 8 2 6 26% 8251 70368 13131 46%
c w 17.70 26 250 0 20 5047 27 58891 10695 3.9 29 8 2 6 26% 8251 70368 13131 46%
c x 17.81 26 250 0 20 5047 27 58891 10695 3.9 29 8 2 6 26% 8253 69770 13131 46%
c d 17.88 26 250 0 20 5047 27 58891 10695 3.9 29 8 2 6 26% 8249 69770 13129 46%
c - 18.73 26 245 0 21 5483 27 62669 12332 3.8 29 8 2 6 26% 8338 69770 13129 46%
c - 19.61 26 237 0 22 5906 27 67251 14565 3.8 29 8 2 6 26% 8449 69770 13129 46%
c o 20.06 26 235 0 22 6122 27 70035 16902 3.8 28 8 2 6 26% 8493 69770 13129 46%
c - 20.54 26 232 0 23 6333 27 71941 16330 3.8 29 8 2 6 26% 8521 69770 13129 46%
c - 21.09 26 232 0 24 6589 26 76736 17884 3.7 28 8 2 6 25% 8578 69770 13129 46%
c d 21.75 26 230 0 24 6884 25 79987 20305 3.7 28 8 2 6 26% 8306 69770 12970 45%
c u 21.84 26 230 0 24 6884 25 79987 17169 3.7 28 8 2 6 26% 8340 69770 12970 45%
c v 21.93 26 230 0 24 6884 25 79987 15379 3.7 28 8 2 6 26% 8343 69770 12970 45%
c w 21.99 26 230 0 24 6884 25 79987 15375 3.7 28 8 2 6 26% 8343 69770 12970 45%
c x 22.08 26 230 0 24 6884 25 79987 15375 3.7 28 8 2 6 26% 8344 66535 12970 45%
c d 22.09 26 230 0 24 6884 25 79987 15359 3.7 28 8 2 6 26% 8314 66535 12955 45%
c t 22.11 26 230 0 24 6884 25 79987 15359 3.7 28 8 2 6 26% 8307 66535 12955 45%
c c 22.17 26 230 0 24 6884 25 79987 15359 3.7 28 8 2 6 26% 8383 66199 12916 45%
c
c  seconds   switched     rate         size/glue tier1    binary         remaining
c         MB   reductions   conflicts        size  tier2     irredundant
c           level   restarts      redundant    glue   trail         variables
c
c d 22.17 26 230 0 24 6884 25 79987 15275 3.7 28 8 2 6 26% 8305 66199 12916 45%
c u 22.24 26 230 0 24 6884 25 79987 14539 3.7 28 8 2 6 26% 8320 66199 12916 45%
c v 22.30 26 230 0 24 6884 25 79987 13928 3.7 28 8 2 6 26% 8326 66199 12916 45%
c w 22.43 26 230 0 24 6884 25 79987 13918 3.7 28 8 2 6 26% 8326 66199 12916 45%
c x 22.53 26 230 0 24 6884 25 79987 13918 3.7 28 8 2 6 26% 8326 66032 12916 45%
c = 22.89 26 230 0 24 6884 25 79987 13918 3.7 28 8 2 6 26% 9088 65917 12522 44%
c d 22.90 26 230 0 24 6884 25 79987 13174 3.7 28 8 2 6 26% 8222 65917 12522 44%
c t 22.91 26 230 0 24 6884 25 79987 13174 3.7 28 8 2 6 26% 8220 65917 12522 44%
c - 23.20 26 229 0 25 6998 25 81634 12998 3.7 28 8 2 6 26% 8213 65917 12522 44%
c - 24.12 26 222 0 26 7540 25 86634 14092 3.6 28 8 1 6 26% 8243 65917 12522 44%
c i 24.54 26 216 0 26 7884 25 90808 17570 3.6 28 8 1 6 26% 8294 65917 12521 44%
c - 24.78 26 215 0 27 8052 25 91737 15514 3.6 28 8 1 6 26% 8291 65917 12521 44%
c i 25.05 26 213 0 27 8302 25 93656 17201 3.6 28 8 1 6 26% 8316 65917 12520 44%
c s 25.24 26 211 0 27 8454 25 95828 19057 3.6 28 8 1 6 26% 8343 63885 12520 44%
c e 25.31 26 211 0 27 8454 25 95828 19057 3.6 28 8 1 6 26% 5492 70314 11012 38%
c 2 25.31 26 211 0 27 8454 25 95828 19057 3.6 28 8 1 6 26% 5491 70314 11012 38%
c s 25.32 26 211 0 27 8454 25 95828 19057 3.6 28 8 1 6 26% 5491 69904 11012 38%
c e 25.33 26 211 0 27 8454 25 95828 19057 3.6 28 8 1 6 26% 5491 69982 10966 38%
c ^ 25.33 26 211 0 27 8454 25 95828 19057 3.6 28 8 1 6 26% 5491 69982 10966 38%
c i 25.39 26 211 0 27 8496 25 96306 14097 3.5 28 8 1 6 26% 5494 69982 10965 38%
c
c  seconds   switched     rate         size/glue tier1    binary         remaining
c         MB   reductions   conflicts        size  tier2     irredundant
c           level   restarts      redundant    glue   trail         variables
c
c - 25.46 26 210 0 28 8555 25 96934 12417 3.5 28 8 1 6 26% 5496 69974 10965 38%
c i 25.90 26 207 0 28 8937 24 102015 16655 3.5 27 8 1 6 26% 5559 69973 10964 38%
c - 25.92 26 207 0 29 8942 24 102225 14300 3.5 27 8 1 6 26% 5558 69973 10964 38%
c i 26.19 26 205 0 29 9177 24 103563 15548 3.5 27 8 1 6 26% 5568 69972 10963 38%
c i 26.23 26 205 0 29 9218 24 103846 15774 3.5 27 8 1 6 26% 5578 69972 10962 38%
c i 26.23 26 205 0 29 9220 24 103851 15777 3.5 27 8 1 6 26% 5578 69972 10960 38%
c i 26.29 26 205 0 29 9263 24 104326 16204 3.5 27 8 1 6 26% 5592 69972 10959 38%
c c 26.36 26 204 0 29 9303 24 104662 16500 3.5 27 8 1 6 26% 5653 69317 10880 38%
c d 26.37 26 204 0 29 9303 24 104662 15994 3.5 27 8 1 6 26% 5517 69305 10880 38%
c d 26.37 26 204 0 29 9303 24 104662 15965 3.5 27 8 1 6 26% 5495 69305 10870 38%
c u 26.40 26 204 0 29 9303 24 104662 14071 3.5 27 8 1 6 26% 5520 69305 10866 38%
c v 26.45 26 204 0 29 9303 24 104662 11727 3.5 27 8 1 6 26% 5537 69305 10866 38%
c w 26.62 26 204 0 29 9303 24 104662 11578 3.5 27 8 1 6 26% 5535 69305 10866 38%
c d 26.98 26 204 0 29 9303 24 104662 11544 3.5 27 8 1 6 26% 5504 69272 10848 38%
c d 26.98 26 204 0 29 9303 24 104662 11543 3.5 27 8 1 6 26% 5498 69264 10845 38%
c t 26.99 26 204 0 29 9303 24 104662 11543 3.5 27 8 1 6 26% 5496 69264 10845 38%
c f 27.02 26 204 0 29 9303 24 104662 11543 3.5 27 8 1 6 26% 5508 69192 10851 38%
c c 27.05 26 204 0 29 9303 24 104662 11517 3.5 27 8 1 6 26% 5496 69090 10838 38%
c d 27.05 26 204 0 29 9303 24 104662 11517 3.5 27 8 1 6 26% 5482 69090 10838 38%
c u 27.07 26 204 0 29 9303 24 104662 11027 3.5 27 8 1 6 26% 5486 69090 10838 38%
c
c  seconds   switched     rate          size/glue tier1    binary         remaining
c         MB   reductions   conflicts         size  tier2     irredundant
c           level   restarts       redundant    glue   trail         variables
c
c v 27.10 26 204 0 29 9303 24 104662 10521 3.5 27 8 1 6 26% 5486 69090 10838 38%
c w 27.23 26 204 0 29 9303 24 104662 10445 3.5 27 8 1 6 26% 5486 69090 10838 38%
c x 27.29 26 204 0 29 9303 24 104662 10445 3.5 27 8 1 6 26% 5487 68948 10838 38%
c d 27.30 26 204 0 29 9303 24 104662 10444 3.5 27 8 1 6 26% 5485 68948 10837 38%
c i 27.31 26 204 0 29 9303 24 104662 10444 3.5 27 8 1 6 26% 5485 68948 10837 38%
c - 27.58 26 201 0 30 9539 24 107610 10973 3.4 27 8 1 6 26% 5515 68948 10837 38%
c i 27.92 26 198 0 30 9921 24 109915 13024 3.4 27 8 1 6 27% 5532 68947 10836 38%
c o 27.93 26 198 0 30 9927 24 110036 13141 3.4 27 8 1 6 27% 5532 68947 10836 38%
c i 27.94 26 198 0 30 9949 24 110114 13211 3.4 27 8 1 6 27% 5534 68947 10835 38%
c i 27.98 26 198 0 30 9986 24 110406 13467 3.4 27 8 1 6 27% 5541 68947 10834 38%
c i 27.99 26 198 0 30 9994 24 110556 13590 3.4 27 8 1 6 27% 5543 68946 10833 38%
c i 28.17 26 194 0 30 10152 24 113077 15899 3.3 26 8 1 6 27% 5555 68946 10827 38%
c - 28.18 26 194 0 31 10152 24 113087 13123 3.3 26 8 1 6 27% 5548 68946 10827 38%
c i 28.20 26 193 0 31 10181 24 113643 13588 3.3 26 8 1 6 27% 5559 68946 10824 38%
c i 28.21 26 192 0 31 10192 24 113928 13802 3.3 26 8 1 6 26% 5567 68946 10820 38%
c i 28.21 26 192 0 31 10192 24 113986 13821 3.3 26 8 1 6 26% 5574 68946 10819 38%
c i 28.22 26 192 0 31 10203 23 114163 13945 3.3 26 8 1 6 26% 5584 68946 10818 38%
c i 28.22 26 192 0 31 10210 23 114301 14047 3.3 26 8 1 6 26% 5586 68946 10817 38%
c i 28.23 26 191 0 31 10220 23 114482 14189 3.3 26 8 1 6 26% 5592 68946 10816 38%
c i 28.24 26 190 0 31 10220 23 115024 14607 3.3 26 8 1 6 26% 5599 68946 10814 38%
c
c  seconds   switched      rate          size/glue tier1    binary         remaining
c         MB   reductions    conflicts         size  tier2     irredundant
c           level   restarts        redundant    glue   trail         variables
c
c i 28.24 26 190 0 31 10220 23 115039 14611 3.3 26 8 1 6 26% 5602 68946 10805 38%
c i 28.24 26 190 0 31 10220 23 115042 14611 3.3 26 8 1 6 26% 5604 68946 10802 38%
c } 28.24 26 190 0 31 10220 23 115046 14610 3.3 26 8 1 6 26% 5605 68946 10795 38%
c 0 28.24 26 190 0 31 10220 23 115046 14610 3.3 26 8 1 6 26% 5605 68946 10795 38%
c
c ---- [ result ] ------------------------------------------------------------
c
s UNSATISFIABLE
c
c ---- [ profiling ] ---------------------------------------------------------
c
c          19.91   70.51 %  search
c          19.91   70.51 %  focused
c           7.91   28.01 %  simplify
c           7.61   26.95 %  probe
c           3.21   11.37 %  vivify
c           2.78    9.83 %  sweep
c           0.55    1.96 %  congruence
c           0.52    1.84 %  eliminate
c           0.49    1.73 %  factor
c           0.42    1.48 %  substitute
c           0.35    1.23 %  preprocess
c           0.15    0.53 %  reduce
c           0.12    0.42 %  fastel
c           0.12    0.42 %  transitive
c           0.09    0.32 %  subsume
c           0.05    0.16 %  backbone
c           0.04    0.14 %  lucky
c           0.03    0.11 %  parse
c =============================================
c          28.24  100.00 %  total
c
c ---- [ statistics ] --------------------------------------------------------
c
c chronological:                         4576                4 %  conflicts
c conflicts:                           115046             4074.46 per second
c congruent:                             3777               13 %  variables
c decisions:                          2651819               23.05 per conflict
c eliminated:                           11870               41 %  variables
c factored:                              4427               15 %  variables
c fast_eliminated:                       8671               73 %  eliminated
c fast_strengthened:                       12                3 %  per strengthened
c fast_subsumed:                          103                1 %  per subsumed
c iterations:                              23                0 %  variables
c propagations:                     106832821          3783585    per second
c reductions:                              31             3711    interval
c reordered:                                5            23009    interval
c restarts:                             10220               11    interval
c strengthened:                           432                0 %  checks
c substituted:                          10378               36 %  variables
c subsumed:                             18272                1 %  checks
c switched:                                 0                0    interval
c vivified:                             53853               11 %  checks
c
c ---- [ glue usage ] --------------------------------------------------------
c
c focused glue 1   used 148020 clauses 53.25% accumulated 53.25% tier1
c focused glue 2   used  61577 clauses 22.15% accumulated 75.41%
c focused glue 3-4 used  30880 clauses 11.11% accumulated 86.52%
c focused glue 5   used   8129 clauses  2.92% accumulated 89.44%
c focused glue 6   used   6000 clauses  2.16% accumulated 91.60% tier2
c
c ---- [ resources ] ---------------------------------------------------------
c
c maximum-resident-set-size:         27078656 bytes         26 MB
c process-time:                            28s              28.24 seconds
c
c ---- [ shutting down ] -----------------------------------------------------
c
c exit 20
